0 96 
1 95 
2 94 
3 93 
4 91 
5 91 
6 94 
7 93 
8 93 
9 90 
10 88 
11 86 
12 85 
13 85 
14 87 
15 86 
16 83 
17 80 
18 80 
19 80 
20 78 
21 78 
22 73 
23 70 
24 68 
25 64 
26 65 
27 65 
28 63 
29 63 
30 61 
31 60 
32 59 
33 57 
34 57 
35 56 
36 52 
37 49 
38 48 
39 48 
40 49 
41 46 
42 50 
43 44 
44 41 
45 36 
46 33 
47 34 
48 30 
49 28 
50 28 
51 24 
52 23 
53 20 
54 18 
55 19 
56 20 
57 17 
58 18 
59 18 
60 16 
61 15 
62 14 
63 11 
64 10 
65 8 
66 6 
67 6 
68 4 
69 5 
70 4 
71 3 
72 3 
73 3 
74 5 
75 6 
76 3 
77 6 
78 3 
79 3 
80 4 
81 3 
82 2 
83 3 
84 2 
85 1 
86 1 
87 0 
88 0 

